Data path: /scratch/opt/lxu/CFLG/benchmarks/random_B
Instance: r_25_0.3_98.txt
Result path: /scratch/opt/lxu/CFLG/results/random_B
Solver: CPLEX
Time limit: 3600
Formulation: EFP
Cover: Large
julia --project=. src/main.jl /scratch/opt/lxu/CFLG/benchmarks/random_B r_25_0.3_98.txt /scratch/opt/lxu/CFLG/results/random_B CPLEX 3600 EFP Large
/scratch/opt/lxu/CFLG/benchmarks/random_B CPLEX 3600.0 /scratch/opt/lxu/CFLG/results/random_B r_25_0.3_98.txt EFP Large
/scratch/opt/lxu/CFLG/benchmarks/random_B/r_25_0.3_98.txt

 read graph
data loaded

problem_graph/original graph: node: 25/25 edge: 98/98 dlt: 1.149474872932666 break_avg_len: 0.574737436466333 break_max_len: 0.9903705037781224elapsed CPU time: 0.040559 seconds
formulation:EFP0 98 25

 model loaded

Version identifier: 12.10.0.0 | 2019-11-26 | 843d4de
CPXPARAM_ClockType                               1
CPXPARAM_Threads                                 1
CPXPARAM_TimeLimit                               3599.959441
CPXPARAM_MIP_Tolerances_AbsMIPGap                1
Tried aggregator 2 times.
MIP Presolve eliminated 1974 rows and 113 columns.
MIP Presolve modified 10512 coefficients.
Aggregator did 108 substitutions.
Reduced MIP has 7565 rows, 4623 columns, and 26428 nonzeros.
Reduced MIP has 4500 binaries, 0 generals, 0 SOSs, and 0 indicators.
Presolve time = 0.03 sec. (31.51 ticks)
Found incumbent of value 98.000000 after 0.06 sec. (58.01 ticks)
Probing time = 0.01 sec. (4.17 ticks)
Tried aggregator 1 time.
Detecting symmetries...
Reduced MIP has 7565 rows, 4623 columns, and 26428 nonzeros.
Reduced MIP has 4500 binaries, 0 generals, 0 SOSs, and 0 indicators.
Presolve time = 0.02 sec. (19.39 ticks)
Probing time = 0.00 sec. (3.91 ticks)
Clique table members: 14843.
MIP emphasis: balance optimality and feasibility.
MIP search method: dynamic search.
Parallel mode: none, using 1 thread.
Root relaxation solution time = 0.17 sec. (287.03 ticks)

        Nodes                                         Cuts/
   Node  Left     Objective  IInf  Best Integer    Best Bound    ItCnt     Gap

*     0+    0                           98.0000        0.0000           100.00%
      0     0        0.4724   409       98.0000        0.4724     2704   99.52%
      0     0        1.0000   409       98.0000     Cuts: 224     2872   98.98%
      0     0        1.0000   409       98.0000    Cuts: 1132     3295   98.98%
*     0+    0                           11.0000        1.0000            90.91%
      0     0        1.0000   409       11.0000     Cuts: 358     3492   90.91%
*     0+    0                            8.0000        1.0000            87.50%
*     0+    0                            7.0000        1.0000            85.71%
*     0+    0                            6.0000        1.0000            83.33%
*     0+    0                            5.0000        1.0000            80.00%
      0     0  -1.00000e+75     0        5.0000        1.0000     3492   80.00%
      0     0        1.0000   409        5.0000   Impl Bds: 1     3958   80.00%
      0     0        1.0000   409        5.0000     Cuts: 872     4499   80.00%
Detecting symmetries...
*     0+    0                            4.0000        1.0000            75.00%
Detecting symmetries...
      0     2        1.0000    62        4.0000        1.0000     4499   75.00%
Elapsed time = 2.99 sec. (4216.91 ticks, tree = 0.01 MB, solutions = 7)
      3     5        1.0000   125        4.0000        1.0000     6325   75.00%
      4     6        1.4635    76        4.0000        1.0000     7965   75.00%
      7     9        1.0000   167        4.0000        1.0000     9703   75.00%
     10    12        1.0000   150        4.0000        1.0000    11285   75.00%
     14    16        1.4808    98        4.0000        1.0000    13663   75.00%
     17    19        1.3028   134        4.0000        1.0000    15178   75.00%
     24    26        1.0000   253        4.0000        1.0000    16795   75.00%
     32    34        1.0000   340        4.0000        1.0000    18760   75.00%
     38    40        1.0000   330        4.0000        1.0000    21091   75.00%
     59    61        1.0000    86        4.0000        1.0000    26971   75.00%
Elapsed time = 5.10 sec. (7675.20 ticks, tree = 0.34 MB, solutions = 7)
    120    92        3.0000   123        4.0000        1.0000    37152   75.00%
    285   159        1.2834   103        4.0000        1.0000    44454   75.00%
    343   199        3.0000    94        4.0000        1.0000    54153   75.00%
    402   254        3.0000   206        4.0000        1.0000    61949   75.00%

Performing restart 1

Repeating presolve.
Tried aggregator 1 time.
Reduced MIP has 7565 rows, 4623 columns, and 26428 nonzeros.
Reduced MIP has 4500 binaries, 0 generals, 0 SOSs, and 0 indicators.
Presolve time = 0.02 sec. (16.35 ticks)
Tried aggregator 1 time.
Reduced MIP has 7565 rows, 4623 columns, and 26428 nonzeros.
Reduced MIP has 4500 binaries, 0 generals, 0 SOSs, and 0 indicators.
Presolve time = 0.02 sec. (19.68 ticks)
Represolve time = 0.19 sec. (137.01 ticks)
    460     0        1.0000   275        4.0000      Cuts: 66    69275   75.00%
    460     0        1.0000   275        4.0000     Cuts: 373    69922   75.00%
    460     0        1.0000   275        4.0000    MIRcuts: 1    69923   75.00%
    460     0        1.0000   275        4.0000     Cuts: 219    70496   75.00%
    460     0        1.0000   275        4.0000      Cuts: 10    71121   75.00%
    460     0        1.0000   275        4.0000     Cuts: 428    71663   75.00%
    460     0        1.0000   275        4.0000       Cuts: 9    71972   75.00%
    460     2        1.0000    98        4.0000        1.0000    71972   75.00%
    463     5        1.1722   190        4.0000        1.0000    76495   75.00%
    467     9        1.3814    98        4.0000        1.0000    79482   75.00%
    470    12        1.0000    98        4.0000        1.0000    80661   75.00%
    475    17        1.0000    97        4.0000        1.0000    81703   75.00%
    478    19        2.0000   133        4.0000        1.0000    83166   75.00%
Elapsed time = 20.23 sec. (30295.48 ticks, tree = 0.63 MB, solutions = 7)
    482    20        3.0000    81        4.0000        1.0000    84852   75.00%
    490    23        3.0000    89        4.0000        1.0000    85660   75.00%
    517    30        1.0000   143        4.0000        1.0000    88597   75.00%
    520    33        1.0000   126        4.0000        1.0000    88751   75.00%
    525    38        1.3771   102        4.0000        1.0000    93055   75.00%
    529    42        2.0000   114        4.0000        1.0000    94635   75.00%
    537    50        2.0000    63        4.0000        1.0000    96166   75.00%
    560    61        3.0000    55        4.0000        1.0000    99059   75.00%
    575    67        1.3805    98        4.0000        1.0000   103759   75.00%
    579    71        2.0000   208        4.0000        1.0000   105970   75.00%
Elapsed time = 28.48 sec. (43356.41 ticks, tree = 2.88 MB, solutions = 7)
    585    77        3.0000    59        4.0000        1.0000   108415   75.00%
    595    83        1.0000    65        4.0000        1.0000   110056   75.00%
    606    94        2.0000   106        4.0000        1.0000   112721   75.00%
    631   108        2.2872    98        4.0000        1.0000   118320   75.00%
    664   137        3.0000    82        4.0000        1.0000   120113   75.00%
    708   153        1.0898   102        4.0000        1.0000   124319   75.00%
    732   176        3.0000    75        4.0000        1.0000   130296   75.00%
    741   175        1.3895    69        4.0000        1.0000   136797   75.00%
    745   179        2.5000    62        4.0000        1.0000   138339   75.00%
    752   182        3.0000    37        4.0000        1.0000   139664   75.00%
Elapsed time = 34.61 sec. (53461.51 ticks, tree = 3.22 MB, solutions = 7)
    756   182        2.0000    76        4.0000        1.0000   142746   75.00%
    761   185        2.5000    63        4.0000        1.0000   145253   75.00%
    769   189        1.0000   113        4.0000        1.0000   147757   75.00%
    770   190        1.0000   127        4.0000        1.0000   151014   75.00%
    772   192        1.0000   146        4.0000        1.0000   151567   75.00%
    774   194        2.0000   135        4.0000        1.0000   155965   75.00%
    778   197        3.0000    18        4.0000        1.0000   156894   75.00%
    780   197        1.5021    99        4.0000        1.0000   160234   75.00%
    784   199        2.0000    65        4.0000        1.0000   161753   75.00%
    790   200        3.0000   105        4.0000        1.0000   163429   75.00%
Elapsed time = 42.62 sec. (65404.84 ticks, tree = 3.57 MB, solutions = 7)
    795   204        3.0000   101        4.0000        1.0000   163939   75.00%
    805   208        3.0000    50        4.0000        1.0000   164295   75.00%
    810   207        1.0000   199        4.0000        1.0000   165864   75.00%
    814   211        1.0000   116        4.0000        1.0000   166551   75.00%
    832   223        1.2056   119        4.0000        1.0000   169725   75.00%
    848   235        cutoff              4.0000        1.0000   170942   75.00%
    852   237        2.0000    61        4.0000        1.0000   172535   75.00%
    859   242        2.0583    95        4.0000        1.0000   172748   75.00%
    860   243        2.0583   108        4.0000        1.0000   172769   75.00%
    871   248        2.0000    94        4.0000        1.0000   173838   75.00%
Elapsed time = 52.40 sec. (80368.85 ticks, tree = 6.45 MB, solutions = 7)
    875   248        2.6093    86        4.0000        1.0000   174689   75.00%
    883   249        1.1874   176        4.0000        1.0000   176777   75.00%
    890   255        3.0000    69        4.0000        1.0000   178216   75.00%
    934   283        1.0000   101        4.0000        1.0000   180237   75.00%
    942   291        1.0694   191        4.0000        1.0000   181512   75.00%
    968   310        2.0000   115        4.0000        1.0000   184455   75.00%
    994   335        2.0000    73        4.0000        1.0000   185646   75.00%
   1019   349        cutoff              4.0000        1.0000   187935   75.00%
   1028   350        cutoff              4.0000        1.0000   191201   75.00%
   1030   350        1.2197   203        4.0000        1.0000   192810   75.00%
Elapsed time = 59.73 sec. (91627.84 ticks, tree = 12.75 MB, solutions = 7)
   1044   362        2.0000    83        4.0000        1.0000   194487   75.00%
   1067   381        1.0000   125        4.0000        1.0000   196050   75.00%
   1079   393        3.0000    76        4.0000        1.0000   197849   75.00%
   1095   401        cutoff              4.0000        1.0000   200695   75.00%
   1097   401        1.0012   207        4.0000        1.0000   201722   75.00%
   1101   405        2.1355   148        4.0000        1.0000   202616   75.00%
   1107   405        2.1382    91        4.0000        1.0000   204426   75.00%
   1112   404        1.0000   416        4.0000        1.0000   207273   75.00%
   1116   408        2.0000   140        4.0000        1.0000   208680   75.00%
   1158   448        3.0000    56        4.0000        1.0000   211031   75.00%
Elapsed time = 67.17 sec. (102997.24 ticks, tree = 18.83 MB, solutions = 7)
   1168   452        cutoff              4.0000        1.0000   213114   75.00%
*  1170+  240                            3.0000        1.0000            66.67%
   1171   240        2.0000   178        3.0000        1.0000   214671   66.67%
   1176   235        cutoff              3.0000        1.0000   217498   66.67%
   1179   234        cutoff              3.0000        1.0000   220036   66.67%
   1185   236        1.2553   144        3.0000        1.0000   222352   66.67%
   1190   234        2.0000   114        3.0000        1.0000   226474   66.67%
   1193   233        1.0000   260        3.0000        1.0000   227779   66.67%
   1195   235        1.4289   119        3.0000        1.0000   229569   66.67%
   1199   237        1.4506    95        3.0000        1.0000   230139   66.67%
   1200   238        2.0000   209        3.0000        1.0000   232212   66.67%
Elapsed time = 75.82 sec. (115996.23 ticks, tree = 10.22 MB, solutions = 8)
   1203   239        2.0000   162        3.0000        1.0000   233526   66.67%
   1206   240        2.0000   192        3.0000        1.0000   234700   66.67%
   1210   244        2.0000   207        3.0000        1.0000   234893   66.67%
   1224   256        cutoff              3.0000        1.0000   236654   66.67%
   1236   266        cutoff              3.0000        1.0000   239091   66.67%
   1253   277        2.0000    77        3.0000        1.0000   240605   66.67%
   1262   275        cutoff              3.0000        1.0000   243666   66.67%
   1263   276        1.0000   120        3.0000        1.0000   244639   66.67%
   1266   279        1.0000   117        3.0000        1.0000   244835   66.67%
   1297   303        1.5000    99        3.0000        1.0000   251109   66.67%
Elapsed time = 85.20 sec. (130460.92 ticks, tree = 12.66 MB, solutions = 8)
   1317   313        1.0313   131        3.0000        1.0000   256264   66.67%
   1357   347        1.0000   160        3.0000        1.0000   260899   66.67%
   1400   384        2.0000   185        3.0000        1.0000   267070   66.67%
   1455   405        1.3501    60        3.0000        1.0000   273935   66.67%
   1466   400        1.0000   120        3.0000        1.0000   279327   66.67%
   1494   428        1.0000    95        3.0000        1.0000   282372   66.67%
   1608   542        1.5000   355        3.0000        1.0000   289209   66.67%
   1651   573        cutoff              3.0000        1.0000   300876   66.67%
   1669   589        2.0000   192        3.0000        1.0000   305674   66.67%
   1699   585        1.3757    90        3.0000        1.0000   326491   66.67%
Elapsed time = 111.88 sec. (170411.58 ticks, tree = 14.67 MB, solutions = 8)
*  1700+   56                            2.0000        1.0000            50.00%
Stat(MathOptInterface.OPTIMAL, 2.0, 0.9999999999999997, 0.4999999999750002, 0.040559, 112.21650910377502, 1700, Main.CFLG.EFP, "", #undef)

GUB cover cuts applied:  6
Clique cuts applied:  5
Cover cuts applied:  7
Implied bound cuts applied:  28
Flow cuts applied:  8
Mixed integer rounding cuts applied:  26
Zero-half cuts applied:  2
Gomory fractional cuts applied:  1

Root node processing (before b&c):
  Real time             =    2.93 sec. (4173.81 ticks)
Sequential b&c:
  Real time             =  109.05 sec. (166368.80 ticks)
                          ------------
Total (root+branch&cut) =  111.98 sec. (170542.61 ticks)
